certificates/rado_a15_c109_N43.cnf
c Rad2 upper bound instance: x1 + 15*x2 - x3 = 109, interval [1,43]
p cnf 43 246
1 8 12 0
-1 -8 -12 0
1 9 27 0
-1 -9 -27 0
1 10 42 0
-1 -10 -42 0
2 8 13 0
-2 -8 -13 0
2 9 28 0
-2 -9 -28 0
2 10 43 0
-2 -10 -43 0
3 8 14 0
-3 -8 -14 0
3 9 29 0
-3 -9 -29 0
4 8 15 0
-4 -8 -15 0
4 9 30 0
-4 -9 -30 0
1 5 7 0
-1 -5 -7 0
5 8 16 0
-5 -8 -16 0
5 9 31 0
-5 -9 -31 0
2 6 7 0
-2 -6 -7 0
6 8 17 0
-6 -8 -17 0
6 9 32 0
-6 -9 -32 0
3 7 0
-3 -7 0
7 8 18 0
-7 -8 -18 0
7 9 33 0
-7 -9 -33 0
4 7 8 0
-4 -7 -8 0
8 19 0
-8 -19 0
8 9 34 0
-8 -9 -34 0
5 7 9 0
-5 -7 -9 0
8 9 20 0
-8 -9 -20 0
9 35 0
-9 -35 0
6 7 10 0
-6 -7 -10 0
8 10 21 0
-8 -10 -21 0
9 10 36 0
-9 -10 -36 0
7 11 0
-7 -11 0
8 11 22 0
-8 -11 -22 0
9 11 37 0
-9 -11 -37 0
7 8 12 0
-7 -8 -12 0
8 12 23 0
-8 -12 -23 0
9 12 38 0
-9 -12 -38 0
7 9 13 0
-7 -9 -13 0
8 13 24 0
-8 -13 -24 0
9 13 39 0
-9 -13 -39 0
7 10 14 0
-7 -10 -14 0
8 14 25 0
-8 -14 -25 0
9 14 40 0
-9 -14 -40 0
7 11 15 0
-7 -11 -15 0
8 15 26 0
-8 -15 -26 0
9 15 41 0
-9 -15 -41 0
7 12 16 0
-7 -12 -16 0
8 16 27 0
-8 -16 -27 0
9 16 42 0
-9 -16 -42 0
7 13 17 0
-7 -13 -17 0
8 17 28 0
-8 -17 -28 0
9 17 43 0
-9 -17 -43 0
7 14 18 0
-7 -14 -18 0
8 18 29 0
-8 -18 -29 0
7 15 19 0
-7 -15 -19 0
8 19 30 0
-8 -19 -30 0
1 6 20 0
-1 -6 -20 0
7 16 20 0
-7 -16 -20 0
8 20 31 0
-8 -20 -31 0
2 6 21 0
-2 -6 -21 0
7 17 21 0
-7 -17 -21 0
8 21 32 0
-8 -21 -32 0
3 6 22 0
-3 -6 -22 0
7 18 22 0
-7 -18 -22 0
8 22 33 0
-8 -22 -33 0
4 6 23 0
-4 -6 -23 0
7 19 23 0
-7 -19 -23 0
8 23 34 0
-8 -23 -34 0
5 6 24 0
-5 -6 -24 0
7 20 24 0
-7 -20 -24 0
8 24 35 0
-8 -24 -35 0
6 25 0
-6 -25 0
7 21 25 0
-7 -21 -25 0
8 25 36 0
-8 -25 -36 0
6 7 26 0
-6 -7 -26 0
7 22 26 0
-7 -22 -26 0
8 26 37 0
-8 -26 -37 0
6 8 27 0
-6 -8 -27 0
7 23 27 0
-7 -23 -27 0
8 27 38 0
-8 -27 -38 0
6 9 28 0
-6 -9 -28 0
7 24 28 0
-7 -24 -28 0
8 28 39 0
-8 -28 -39 0
6 10 29 0
-6 -10 -29 0
7 25 29 0
-7 -25 -29 0
8 29 40 0
-8 -29 -40 0
6 11 30 0
-6 -11 -30 0
7 26 30 0
-7 -26 -30 0
8 30 41 0
-8 -30 -41 0
6 12 31 0
-6 -12 -31 0
7 27 31 0
-7 -27 -31 0
8 31 42 0
-8 -31 -42 0
6 13 32 0
-6 -13 -32 0
7 28 32 0
-7 -28 -32 0
8 32 43 0
-8 -32 -43 0
6 14 33 0
-6 -14 -33 0
7 29 33 0
-7 -29 -33 0
6 15 34 0
-6 -15 -34 0
7 30 34 0
-7 -30 -34 0
1 5 35 0
-1 -5 -35 0
6 16 35 0
-6 -16 -35 0
7 31 35 0
-7 -31 -35 0
2 5 36 0
-2 -5 -36 0
6 17 36 0
-6 -17 -36 0
7 32 36 0
-7 -32 -36 0
3 5 37 0
-3 -5 -37 0
6 18 37 0
-6 -18 -37 0
7 33 37 0
-7 -33 -37 0
4 5 38 0
-4 -5 -38 0
6 19 38 0
-6 -19 -38 0
7 34 38 0
-7 -34 -38 0
5 39 0
-5 -39 0
6 20 39 0
-6 -20 -39 0
7 35 39 0
-7 -35 -39 0
5 6 40 0
-5 -6 -40 0
6 21 40 0
-6 -21 -40 0
7 36 40 0
-7 -36 -40 0
5 7 41 0
-5 -7 -41 0
6 22 41 0
-6 -22 -41 0
7 37 41 0
-7 -37 -41 0
5 8 42 0
-5 -8 -42 0
6 23 42 0
-6 -23 -42 0
7 38 42 0
-7 -38 -42 0
5 9 43 0
-5 -9 -43 0
6 24 43 0
-6 -24 -43 0
7 39 43 0
-7 -39 -43 0
