certificates/rado_a15_c109_N43.drat
-39 -43 0
6 7 -43 0
7 8 -43 0
8 -43 0
d 7 8 -43 0
-5 -43 0
d -9 -5 -43 0
-43 0
-5 0
39 0
9 0
-35 0
-13 0
1 0
-27 0
-6 -7 0
d -6 -2 -7 0
16 20 0
d 16 7 20 0
-7 -8 0
-8 0
2 0
16 0
19 0
24 0
32 0
42 0
6 0
38 0
-28 0
-21 0
0
